
Gurobi 10.0.1 (win64) logging started Sat Sep  9 01:38:57 2023

Set parameter LogFile to value "results-heuristic-start//log/BA_13_makespan.log"
Gurobi Optimizer version 10.0.1 build v10.0.1rc0 (win64)

CPU model: AMD Ryzen 7 3700X 8-Core Processor, instruction set [SSE2|AVX|AVX2]
Thread count: 8 physical cores, 16 logical processors, using up to 16 threads

Optimize a model with 621 rows, 433 columns and 2582 nonzeros
Model fingerprint: 0x6912f560
Variable types: 54 continuous, 379 integer (378 binary)
Coefficient statistics:
  Matrix range     [1e+00, 1e+06]
  Objective range  [1e+00, 1e+00]
  Bounds range     [1e+00, 1e+00]
  RHS range        [1e+00, 3e+06]

Warning: Completing partial solution with 361 unfixed non-continuous variables out of 379
User MIP start produced solution with objective 1151 (0.00s)
Loaded user MIP start with objective 1151

Presolve removed 81 rows and 168 columns
Presolve time: 0.00s
Presolved: 540 rows, 265 columns, 2475 nonzeros
Variable types: 54 continuous, 211 integer (210 binary)
Found heuristic solution: objective 1150.0000000

Root relaxation: objective 4.300000e+01, 81 iterations, 0.00 seconds (0.00 work units)

    Nodes    |    Current Node    |     Objective Bounds      |     Work
 Expl Unexpl |  Obj  Depth IntInf | Incumbent    BestBd   Gap | It/Node Time

     0     0   43.00000    0    7 1150.00000   43.00000  96.3%     -    0s
H    0     0                     137.0000000   43.00000  68.6%     -    0s
H    0     0                     135.0000000   43.00000  68.1%     -    0s
H    0     0                     133.0000000   43.00000  67.7%     -    0s
H    0     0                     132.0000000   43.00000  67.4%     -    0s
     0     0   43.00001    0    9  132.00000   43.00001  67.4%     -    0s
H    0     0                     124.0000000   43.00001  65.3%     -    0s
H    0     0                     119.0000000   43.93177  63.1%     -    0s
     0     0   44.00000    0   17  119.00000   44.00000  63.0%     -    0s
H    0     0                     118.0000000   44.00000  62.7%     -    0s
     0     0   45.02610    0   22  118.00000   45.02610  61.8%     -    0s
H    0     0                     116.0000000   45.02610  61.2%     -    0s
H    0     0                     112.0000000   45.02610  59.8%     -    0s
     0     0   45.02610    0   26  112.00000   45.02610  59.8%     -    0s
     0     0   45.80353    0   23  112.00000   45.80353  59.1%     -    0s
     0     0   46.00000    0   16  112.00000   46.00000  58.9%     -    0s
H    0     0                     109.0000000   46.00000  57.8%     -    0s
     0     0   46.00000    0   16  109.00000   46.00000  57.8%     -    0s
     0     0   46.00000    0   10  109.00000   46.00000  57.8%     -    0s
H    0     0                     105.0000000   46.00000  56.2%     -    0s
     0     0   46.00000    0   14  105.00000   46.00000  56.2%     -    0s
H    0     0                      98.0000000   46.04131  53.0%     -    0s
     0     0   46.04131    0   26   98.00000   46.04131  53.0%     -    0s
     0     0   46.04131    0   23   98.00000   46.04131  53.0%     -    0s
     0     0   46.04796    0   33   98.00000   46.04796  53.0%     -    0s
     0     0   46.04796    0   36   98.00000   46.04796  53.0%     -    0s
     0     0   46.13122    0   33   98.00000   46.13122  52.9%     -    0s
     0     0   46.13122    0   38   98.00000   46.13122  52.9%     -    0s
     0     0   46.13122    0   38   98.00000   46.13122  52.9%     -    0s
     0     0   46.13122    0   43   98.00000   46.13122  52.9%     -    0s
     0     0   46.13731    0   23   98.00000   46.13731  52.9%     -    0s
     0     0   46.13731    0   34   98.00000   46.13731  52.9%     -    0s
     0     0   46.14659    0   36   98.00000   46.14659  52.9%     -    0s
     0     0   46.15508    0   38   98.00000   46.15508  52.9%     -    0s
     0     0   46.16114    0   43   98.00000   46.16114  52.9%     -    0s
     0     0   46.16114    0   39   98.00000   46.16114  52.9%     -    0s
     0     0   46.33777    0   34   98.00000   46.33777  52.7%     -    0s
     0     0   46.34095    0   36   98.00000   46.34095  52.7%     -    0s
     0     0   46.34095    0   39   98.00000   46.34095  52.7%     -    0s
     0     0   46.35685    0   39   98.00000   46.35685  52.7%     -    0s
     0     0   46.35685    0   40   98.00000   46.35685  52.7%     -    0s
H    0     0                      91.0000000   46.35685  49.1%     -    0s
     0     0   46.35685    0   38   91.00000   46.35685  49.1%     -    0s
     0     0   46.35685    0   43   91.00000   46.35685  49.1%     -    0s
     0     0   46.35685    0   29   91.00000   46.35685  49.1%     -    0s
     0     0   46.35685    0   35   91.00000   46.35685  49.1%     -    0s
     0     0   46.35685    0   19   91.00000   46.35685  49.1%     -    0s
     0     0   46.35685    0   29   91.00000   46.35685  49.1%     -    0s
     0     0   46.35685    0   23   91.00000   46.35685  49.1%     -    0s
     0     0   46.35685    0   22   91.00000   46.35685  49.1%     -    0s
     0     1   46.44633    0   17   91.00000   46.44633  49.0%     -    0s
 17961  6093   62.00000   47   16   91.00000   51.00000  44.0%  33.9    5s
*24475  8416              51      90.0000000   52.00000  42.2%  35.8    6s
 41716 13067   53.44064   32   35   90.00000   53.00000  41.1%  39.9   11s
*51924 14928              46      88.0000000   54.00000  38.6%  41.3   13s
 59212 16470   64.00000   43   25   88.00000   55.00000  37.5%  42.2   15s
 81040 19579   75.00000   47   16   88.00000   57.00000  35.2%  44.6   20s
H90692 20462                      87.0000000   57.09242  34.4%  45.4   24s
 91754 20617 infeasible   37        87.00000   58.00000  33.3%  45.5   25s
 110426 22197   67.61939   43   26   87.00000   59.00000  32.2%  46.5   30s
 129307 23355   60.00000   45   26   87.00000   60.00000  31.0%  47.3   35s
 144967 24143   69.86250   42   20   87.00000   61.00000  29.9%  47.8   40s
 161240 24667   73.00000   43   14   87.00000   62.00000  28.7%  48.4   45s
 169908 24062 infeasible   50        87.00000   62.00000  28.7%  48.7   54s
 183458 24078   68.00000   37   23   87.00000   63.00000  27.6%  48.5   56s
 193622 24137 infeasible   42        87.00000   63.00000  27.6%  48.8   60s
 207119 23894   83.21064   45   13   87.00000   64.00000  26.4%  49.0   65s
 221813 23373   67.90383   46   20   87.00000   65.00000  25.3%  49.1   70s
 234622 22704 infeasible   59        87.00000   66.00000  24.1%  49.1   75s
 245586 22019   83.34831   44   21   87.00000   66.00000  24.1%  49.5   80s
 253701 21291 infeasible   37        87.00000   67.00000  23.0%  49.3   85s
 265428 20462   69.06049   46   27   87.00000   67.54099  22.4%  49.3   90s
 276039 19210 infeasible   39        87.00000   68.00000  21.8%  49.5   95s
 286541 17830 infeasible   52        87.00000   69.00000  20.7%  49.4  100s
 297594 16368   70.00000   46   29   87.00000   70.00000  19.5%  49.3  105s
 307844 14713 infeasible   51        87.00000   71.00000  18.4%  49.3  110s
*310746 14093              59      86.0000000   71.00000  17.4%  49.3  111s
 318079 12428 infeasible   39        86.00000   72.00000  16.3%  49.3  115s
 326847 10366   74.38752   46   28   86.00000   73.00000  15.1%  49.3  120s
 335075  7937     cutoff   42        86.00000   74.00000  14.0%  49.3  125s
 344905  4853   77.04920   38   19   86.00000   76.01600  11.6%  49.3  130s
 354805   162   83.00000   52   21   86.00000   81.00000  5.81%  49.1  135s

Cutting planes:
  Learned: 200
  Gomory: 151
  Cover: 10
  Implied bound: 3
  MIR: 680
  Flow cover: 1025
  Inf proof: 53
  Relax-and-lift: 15

Explored 356794 nodes (17512154 simplex iterations) in 135.63 seconds (106.60 work units)
Thread count was 16 (of 16 available processors)

Solution count 10: 86 86 87 ... 112

Optimal solution found (tolerance 1.00e-04)
Best objective 8.600000000000e+01, best bound 8.600000000000e+01, gap 0.0000%
Warning: constraint name "precedence between 0,2 to 0,0 if x_[j,l,h,z,i]=1" has a space
Warning: constraint name "precedence between 0,2 to 0,0 if x_[j,l,h,z,i]=1" has a space
Warning: default constraint names used to write mps file
